c   #vars: 120   #clauses: 559   #literals: 1562
c 
p cnf 120 559
-1 -2 0
-3 -4 0
-5 -6 0
-7 -8 0
-9 -10 0
-11 -12 0
74 -95 97 98 0
-14 -15 0
-16 -17 0
-18 -19 0
-20 -21 0
-22 -23 0
-24 -25 0
-11 41 63 64 0
-27 -28 0
-29 -30 0
-31 -32 0
-33 -34 0
-35 -36 0
-37 -38 0
-39 -40 0
48 82 83 -88 0
-42 -43 0
-44 -45 0
-46 -47 0
9 10 71 -72 0
-5 107 108 116 0
63 64 97 98 0
-50 -51 0
-52 -53 0
-54 -55 0
-56 -57 0
-61 107 108 116 0
18 19 69 70 0
52 53 67 68 0
-59 -60 0
-61 -62 0
-63 -64 0
-65 -66 0
-67 -68 0
-69 -70 0
42 43 75 -117 0
-72 -73 0
78 -84 110 111 0
-76 -77 0
-24 81 93 94 0
-79 -80 0
-78 84 103 104 0
-82 -83 0
56 57 -59 85 0
-48 88 107 108 0
-86 -87 0
89 90 109 -119 0
-89 -90 0
18 19 -24 81 0
1 2 107 108 0
-91 -92 0
-93 -94 0
-95 -96 0
-97 -98 0
-99 -100 0
-101 -102 0
-103 -104 0
-105 -106 0
-107 -108 0
42 43 117 118 0
14 15 22 23 0
-42 75 117 118 0
5 6 44 45 0
-110 -111 0
-112 -113 0
-114 -115 0
9 10 93 94 0
-117 -118 0
7 8 76 77 0
-119 -120 0
-1 -29 0
-2 -30 0
5 6 -107 116 0
-2 -49 0
24 25 99 100 0
-1 -52 0
-2 -53 0
24 25 33 34 0
-1 -54 0
-2 -55 0
35 36 112 113 0
-1 -101 0
-2 -102 0
22 23 24 25 0
-1 -107 0
-2 -108 0
46 47 86 87 0
-3 -50 0
-4 -51 0
54 55 63 64 0
-3 -65 0
-4 -66 0
16 17 52 53 0
-3 -76 0
-4 -77 0
18 19 117 118 0
-3 -110 0
-4 -111 0
-5 -7 0
-6 -8 0
-5 -44 0
-6 -45 0
5 6 52 53 0
-5 -52 0
-6 -53 0
31 32 46 47 0
18 19 26 -79 0
-6 -116 0
42 43 101 102 0
-7 -31 0
-8 -32 0
16 17 65 66 0
-7 -54 0
-8 -55 0
18 19 67 68 0
-7 -59 0
-8 -60 0
89 90 117 118 0
-7 -76 0
-8 -77 0
-7 -93 0
-8 -94 0
-7 -99 0
-8 -100 0
18 19 46 47 0
-7 -107 0
-8 -108 0
42 43 69 70 0
-9 -31 0
-10 -32 0
33 34 46 47 0
48 -67 82 83 0
-10 -41 0
52 53 72 73 0
-9 -65 0
-10 -66 0
9 10 112 113 0
-37 42 43 75 0
-10 -71 0
-9 -93 0
-10 -94 0
101 102 114 115 0
-9 -112 0
-10 -113 0
14 15 42 43 0
-9 -119 0
-10 -120 0
13 86 87 -103 0
-11 -14 0
-12 -15 0
1 2 49 -89 0
-11 109 119 120 0
-12 -41 0
65 66 105 106 0
-11 -44 0
-12 -45 0
-12 -109 0
-67 74 97 98 0
-13 -30 0
74 -97 114 115 0
-13 -87 0
13 29 30 -103 0
74 -95 114 115 0
-13 -104 0
67 68 74 -114 0
-14 -22 0
-15 -23 0
20 21 37 38 0
-14 -33 0
-15 -34 0
39 40 50 51 0
-14 -37 0
-15 -38 0
44 45 114 115 0
-14 -42 0
-15 -43 0
69 70 82 83 0
-14 -56 0
-15 -57 0
11 12 44 45 0
37 38 75 -117 0
-15 -71 0
-16 -52 0
-17 -53 0
3 4 76 77 0
-16 -65 0
-17 -66 0
7 8 93 94 0
-16 -88 0
-11 89 90 109 0
-17 48 -67 88 0
-16 -107 0
-17 -108 0
59 60 112 113 0
-9 41 63 64 0
-19 -26 0
-18 -46 0
-19 -47 0
76 77 103 104 0
-18 -67 0
-19 -68 0
13 -29 86 87 0
-18 -69 0
-19 -70 0
78 84 -104 -110 0
-55 84 103 104 0
-19 -81 0
54 55 93 94 0
-18 -91 0
-19 -92 0
1 2 101 102 0
-18 -114 0
-19 -115 0
9 10 65 66 0
-18 -117 0
-19 -118 0
-17 48 -82 88 0
-20 -37 0
-21 -38 0
7 8 54 55 0
-20 -39 0
-21 -40 0
24 25 59 60 0
-20 -67 0
-21 -68 0
95 96 110 111 0
-20 -82 0
-21 -83 0
13 -86 103 104 0
-22 -24 0
-23 -25 0
69 70 95 96 0
-22 -27 0
-23 -28 0
9 10 -11 41 0
-22 -31 0
-23 -32 0
7 8 99 100 0
-22 -110 0
-23 -111 0
-24 -33 0
-25 -34 0
27 28 37 38 0
-24 -59 0
-25 -60 0
91 92 105 106 0
54 55 84 -104 0
-25 -81 0
-24 -99 0
-25 -100 0
22 23 27 28 0
-24 -119 0
-25 -120 0
18 19 91 92 0
11 12 41 -63 0
-26 -62 0
14 15 56 57 0
-9 11 12 41 0
-26 -80 0
20 21 39 40 0
-27 -37 0
-28 -38 0
-5 61 62 116 0
-28 -58 0
31 32 33 34 0
-27 -59 0
-28 -60 0
22 23 31 32 0
-27 -97 0
-28 -98 0
5 6 7 8 0
-27 -103 0
-28 -104 0
35 36 89 90 0
-29 -52 0
-30 -53 0
48 -82 88 -108 0
-67 74 114 115 0
20 21 67 68 0
-29 -110 0
-30 -111 0
72 73 107 108 0
-31 -33 0
-32 -34 0
42 43 82 83 0
-31 -46 0
-32 -47 0
67 68 78 -110 0
-31 -119 0
-32 -120 0
18 19 114 115 0
-33 -46 0
-34 -47 0
13 -29 103 104 0
-33 -76 0
-34 -77 0
-17 88 107 108 0
-36 -85 0
1 2 49 -101 0
-35 -89 0
-36 -90 0
14 15 33 34 0
-35 -112 0
-36 -113 0
95 96 112 113 0
-35 -119 0
-36 -120 0
59 60 86 87 0
-37 -59 0
-38 -60 0
72 73 117 118 0
-67 78 110 111 0
-38 -75 0
-56 58 99 100 0
-39 -50 0
-40 -51 0
-39 -103 0
-40 -104 0
48 -67 88 -108 0
-39 -107 0
-40 -108 0
-39 -110 0
-40 -111 0
44 45 76 77 0
-89 109 119 120 0
-41 -64 0
11 12 14 15 0
-42 -69 0
-43 -70 0
-55 78 84 -110 0
-35 59 60 85 0
-43 -75 0
-42 -82 0
-43 -83 0
50 51 105 106 0
-42 -101 0
-43 -102 0
44 45 79 80 0
-42 -117 0
-43 -118 0
1 2 52 53 0
-44 -72 0
-45 -73 0
29 30 52 53 0
-44 -76 0
-45 -77 0
20 21 82 83 0
-44 -79 0
-45 -80 0
1 2 29 30 0
-44 -114 0
-45 -115 0
29 30 110 111 0
27 28 97 98 0
91 92 97 98 0
37 38 59 60 0
74 97 98 -114 0
44 45 72 73 0
-46 -65 0
-47 -66 0
-46 -86 0
-47 -87 0
67 68 97 98 0
-46 -95 0
-47 -96 0
9 10 -14 71 0
-48 -68 0
-14 71 72 73 0
-48 -83 0
56 57 107 108 0
-9 71 72 73 0
11 12 109 -119 0
3 4 50 51 0
5 6 -61 116 0
-49 -90 0
22 23 110 111 0
61 62 -107 116 0
-49 -102 0
35 36 119 120 0
14 15 37 38 0
49 -89 101 102 0
31 32 119 120 0
-67 74 95 96 0
39 40 107 108 0
-50 -91 0
-51 -92 0
27 28 59 60 0
-50 -105 0
-51 -106 0
1 2 54 55 0
-52 -67 0
-53 -68 0
54 55 56 57 0
-52 -72 0
-53 -73 0
63 64 69 70 0
-54 -56 0
-55 -57 0
9 10 41 -63 0
-54 -63 0
-55 -64 0
7 8 107 108 0
-54 -84 0
-35 56 57 85 0
3 4 65 66 0
-54 -93 0
-55 -94 0
48 67 68 -88 0
-1 49 89 90 0
-57 -58 0
16 17 88 -108 0
-57 -85 0
89 90 119 120 0
-56 -107 0
-57 -108 0
95 96 99 100 0
56 57 58 -99 0
39 40 103 104 0
-58 -100 0
9 10 119 120 0
-27 56 57 58 0
89 90 97 98 0
-59 -76 0
-60 -77 0
86 87 105 106 0
16 17 -48 88 0
-60 -85 0
74 95 96 -114 0
-59 -86 0
-60 -87 0
-59 -112 0
-60 -113 0
79 80 119 120 0
-61 -101 0
-62 -102 0
46 47 65 66 0
18 19 26 -61 0
-62 -116 0
7 8 31 32 0
-63 -69 0
-64 -70 0
-37 75 117 118 0
-63 -97 0
-64 -98 0
-65 -89 0
-66 -90 0
48 67 68 -82 0
-65 -105 0
-66 -106 0
-18 26 61 62 0
-68 -74 0
-18 81 93 94 0
-68 -78 0
27 28 103 104 0
-67 -97 0
-68 -98 0
-69 -82 0
-70 -83 0
67 68 74 -95 0
-69 -95 0
-70 -96 0
37 38 -42 75 0
-71 -73 0
72 73 91 92 0
-72 -91 0
-73 -92 0
79 80 91 92 0
-72 -107 0
-73 -108 0
50 51 91 92 0
-72 -117 0
-73 -118 0
-55 -67 78 84 0
13 29 30 -86 0
67 68 74 -97 0
26 61 62 -79 0
-74 -96 0
27 28 58 -99 0
-18 26 79 80 0
-74 -98 0
3 4 110 111 0
49 89 90 -101 0
-74 -115 0
33 34 76 77 0
-56 59 60 85 0
-75 -118 0
65 66 89 90 0
-76 -95 0
-77 -96 0
-76 -103 0
-77 -104 0
74 95 96 -97 0
24 25 81 -93 0
35 36 -59 85 0
59 60 76 77 0
-18 24 25 81 0
-78 -111 0
14 15 71 -72 0
-79 -91 0
-80 -92 0
-79 -119 0
-80 -120 0
18 19 81 -93 0
54 55 -78 84 0
-81 -94 0
-84 -103 0
35 36 -56 85 0
-27 58 99 100 0
-86 -105 0
-87 -106 0
46 47 95 96 0
-88 -107 0
11 12 -89 109 0
103 104 112 113 0
-89 -97 0
-90 -98 0
-90 -109 0
9 10 31 32 0
-89 -117 0
-90 -118 0
76 77 95 96 0
-89 -119 0
-90 -120 0
-67 78 84 -104 0
-91 -97 0
-92 -98 0
27 28 -56 58 0
-91 -105 0
-92 -106 0
61 62 101 102 0
-95 -99 0
-96 -100 0
105 106 117 118 0
-95 -110 0
-96 -111 0
-95 -112 0
-96 -113 0
24 25 119 120 0
-101 -114 0
-102 -115 0
16 17 107 108 0
-103 -112 0
-104 -113 0
39 40 110 111 0
-105 -117 0
-106 -118 0
67 68 78 -84 0
26 -61 79 80 0
-108 -116 0
-9 14 15 71 0
-109 -120 0
7 8 59 60 0
-1 49 101 102 0
